(declare-const ent0 Bool)
(declare-const ent1 Bool)
(declare-const ent2 Bool)
(declare-const ent3 Bool)
(declare-const ent4 Bool)
(declare-const ent5 Bool)
(declare-const reac0 Bool)
(declare-const dir0 Bool)
(declare-const coef0 Real)
(declare-const reac1 Bool)
(declare-const dir1 Bool)
(declare-const coef1 Real)
(declare-const reac2 Bool)
(declare-const dir2 Bool)
(declare-const coef2 Real)
(declare-const reac3 Bool)
(declare-const dir3 Bool)
(declare-const coef3 Real)
(declare-const reac4 Bool)
(declare-const dir4 Bool)
(declare-const coef4 Real)
(assert (= dir0 (< coef0 0)))
(assert (= dir1 (< coef1 0)))
(assert (= dir2 (< coef2 0)))
(assert (= dir3 (< coef3 0)))
(assert (= dir4 (< coef4 0)))
(assert (=> reac0 (and(or ent0 ent2) ent3)))
(assert (=> reac1 (and(or ent1 ent2) ent4)))
(assert (=> reac2 (and(or ent0 ent4) ent5)))
(assert (=> reac3 (and(or ent1 ent3) ent5)))
(assert (=> reac4 (and(or ent2 ent2) ent5)))
(assert (=> (and reac0 (not dir0)) (or (not ent0) (not ent2))))
(assert (=> (and reac1 (not dir1)) (or (not ent1) (not ent2))))
(assert (=> (and reac2 (not dir2)) (or (not ent0) (not ent4))))
(assert (=> (and reac3 (not dir3)) (or (not ent1) (not ent3))))
(assert (=> ent0 (> (+ (ite reac0 (- coef0) 0) (ite reac2 (- coef2) 0) 0) 0)))
(assert (=> ent1 (> (+ (ite reac1 (- coef1) 0) (ite reac3 (- coef3) 0) 0) 0)))
(assert (=> ent2 (> (+ (ite reac0 (- coef0) 0) (ite reac1 (- coef1) 0) (ite reac4 (+ (- coef4) (- coef4)) 0) 0) 0)))
(assert (=> ent3 (> (+ (ite reac0 coef0 0) (ite reac3 (- coef3) 0) 0) 0)))
(assert (=> ent4 (> (+ (ite reac1 coef1 0) (ite reac2 (- coef2) 0) 0) 0)))
(assert (=> ent5 (> (+ (ite reac2 coef2 0) (ite reac3 coef3 0) (ite reac4 coef4 0) 0) 0)))
(assert ((_ at-most 5) ent0 ent1 ent2 ent3 ent4 ent5))
(assert ((_ at-least 5) ent0 ent1 ent2 ent3 ent4 ent5))
(assert ((_ at-least 5) reac0 reac1 reac2 reac3 reac4))
(assert (not (and reac0 (not dir0) reac3 (not dir3) reac4 dir4 ent2 ent3 ent5 (not reac1) (not reac2))))
(assert (not (and reac1 (not dir1) reac2 (not dir2) reac4 dir4 ent2 ent4 ent5 (not reac0) (not reac3))))
(assert (not (and reac1 (not dir1) reac2 (not dir2) reac3 dir3 reac4 dir4 ent2 ent3 ent4 ent5 (not reac0))))
(assert (not (and reac1 dir1 reac2 dir2 reac3 (not dir3) reac4 (not dir4) ent1 ent2 ent4 ent5 (not reac0))))
(assert (not (and reac0 (not dir0) reac2 dir2 reac3 (not dir3) reac4 dir4 ent2 ent3 ent4 ent5 (not reac1))))
(assert (not (and reac0 (not dir0) reac1 (not dir1) reac2 (not dir2) reac4 dir4 ent2 ent3 ent4 ent5 (not reac3))))
(assert (not (and reac0 (not dir0) reac1 (not dir1) reac3 (not dir3) reac4 dir4 ent2 ent3 ent4 ent5 (not reac2))))
(assert (not (and reac0 dir0 reac1 (not dir1) reac2 (not dir2) reac3 dir3 reac4 dir4 ent2 ent3 ent4 ent5)))
(assert (not (and reac0 (not dir0) reac1 dir1 reac2 dir2 reac3 (not dir3) reac4 dir4 ent2 ent3 ent4 ent5)))
(assert (not (and reac0 (not dir0) reac1 (not dir1) reac2 dir2 reac3 (not dir3) reac4 dir4 ent2 ent3 ent4 ent5)))
(assert (not (and reac0 (not dir0) reac1 (not dir1) reac2 (not dir2) reac3 dir3 reac4 dir4 ent2 ent3 ent4 ent5)))
(assert (not (and reac0 (not dir0) reac1 (not dir1) reac2 (not dir2) reac3 (not dir3) reac4 dir4 ent2 ent3 ent4 ent5)))
(assert (not (and reac0 dir0 reac2 (not dir2) reac3 dir3 reac4 (not dir4) ent0 ent2 ent3 ent5 (not reac1))))
(check-sat)
(get-model)
